# Solution for model r5_t36_m7_5 Batch Number: 7
# Finished Task: 34 / 36
# Makespan: 683.0, Total Distance: 728.0, Total Time: 3.6166
# R O S F Batch
0 0 35 0.0 0.0 -1
1 1 12 0.0 0.0 -1
2 2 33 0.0 0.0 -1
3 3 30 0.0 0.0 -1
4 4 13 0.0 0.0 -1
5 1 32 543.0 576.0 5
6 0 24 461.0 488.0 2
7 1 5 487.0 509.0 5
8 1 7 417.0 452.0 3
9 3 26 589.0 618.0 5
10 -1 -1 -1.0 -1.0 6
11 0 36 551.0 577.0 3
12 1 23 28.0 67.0 0
13 4 20 48.0 70.0 0
14 4 37 245.0 284.0 0
15 2 -1 319.0 348.0 3
16 4 21 164.0 188.0 0
17 3 25 434.0 472.0 2
18 4 28 343.0 369.0 1
19 -1 -1 -1.0 -1.0 6
20 4 39 77.0 107.0 0
21 4 14 200.0 223.0 0
22 3 9 536.0 562.0 4
23 1 40 265.0 292.0 0
24 0 11 512.0 539.0 3
25 3 22 487.0 514.0 2
26 3 -1 627.0 648.0 6
27 0 -1 661.0 683.0 6
28 4 -1 381.0 409.0 4
29 2 15 280.0 312.0 3
30 3 34 350.0 384.0 0
31 0 6 400.0 426.0 0
32 1 -1 641.0 661.0 6
33 2 38 180.0 210.0 0
34 3 17 400.0 426.0 0
35 0 31 353.0 382.0 0
36 0 27 631.0 661.0 4
37 4 18 305.0 343.0 0
38 2 29 259.0 280.0 1
39 4 16 107.0 138.0 0
40 1 8 325.0 356.0 1
